24° run output:
{
    "Function": "ClusterA500.tsp",
    "Problem dimension": [
        99,
        44,
        367,
        222,
        342,
        398,
        40,
        384,
        281,
        399,
        183,
        282,
        207,
        5,
        197,
        276,
        68,
        49,
        51,
        375,
        376,
        289,
        160,
        413,
        457,
        168,
        390,
        82,
        55,
        465,
        271,
        498,
        490,
        64,
        338,
        372,
        345,
        38,
        445,
        341,
        235,
        200,
        383,
        102,
        125,
        86,
        34,
        358,
        441,
        190,
        73,
        329,
        6,
        310,
        113,
        139,
        262,
        140,
        300,
        492,
        438,
        304,
        424,
        266,
        12,
        480,
        303,
        74,
        330,
        39,
        7,
        387,
        167,
        337,
        298,
        223,
        340,
        76,
        202,
        180,
        152,
        193,
        228,
        110,
        143,
        327,
        94,
        211,
        92,
        77,
        179,
        115,
        204,
        377,
        133,
        439,
        11,
        366,
        17,
        418,
        93,
        155,
        396,
        56,
        263,
        496,
        294,
        315,
        251,
        33,
        116,
        484,
        18,
        112,
        261,
        182,
        316,
        437,
        325,
        31,
        201,
        370,
        20,
        111,
        428,
        446,
        171,
        346,
        426,
        456,
        361,
        242,
        198,
        362,
        232,
        37,
        459,
        380,
        268,
        28,
        135,
        1,
        240,
        250,
        100,
        25,
        257,
        269,
        234,
        412,
        393,
        127,
        343,
        249,
        54,
        363,
        80,
        475,
        151,
        103,
        421,
        97,
        52,
        292,
        146,
        391,
        108,
        410,
        302,
        61,
        308,
        159,
        90,
        220,
        91,
        173,
        209,
        344,
        254,
        164,
        474,
        360,
        192,
        442,
        148,
        487,
        452,
        14,
        83,
        206,
        382,
        248,
        481,
        260,
        4,
        479,
        131,
        478,
        221,
        150,
        79,
        109,
        247,
        365,
        454,
        265,
        213,
        323,
        450,
        462,
        423,
        45,
        104,
        106,
        293,
        307,
        225,
        285,
        313,
        290,
        495,
        145,
        273,
        470,
        296,
        488,
        494,
        453,
        231,
        47,
        468,
        66,
        67,
        417,
        107,
        88,
        62,
        279,
        36,
        320,
        130,
        176,
        229,
        19,
        237,
        239,
        464,
        355,
        224,
        400,
        264,
        142,
        15,
        431,
        123,
        24,
        359,
        351,
        432,
        455,
        158,
        53,
        287,
        336,
        414,
        324,
        259,
        170,
        169,
        280,
        319,
        166,
        156,
        141,
        48,
        233,
        430,
        317,
        227,
        374,
        311,
        335,
        381,
        41,
        427,
        252,
        491,
        407,
        436,
        448,
        128,
        189,
        230,
        482,
        10,
        314,
        216,
        186,
        199,
        429,
        415,
        404,
        466,
        378,
        154,
        451,
        121,
        476,
        129,
        57,
        397,
        219,
        184,
        301,
        23,
        449,
        217,
        278,
        339,
        402,
        497,
        368,
        191,
        126,
        389,
        215,
        258,
        419,
        42,
        409,
        435,
        433,
        161,
        136,
        458,
        444,
        118,
        286,
        422,
        71,
        226,
        460,
        274,
        354,
        408,
        132,
        120,
        124,
        134,
        356,
        194,
        471,
        50,
        175,
        245,
        81,
        65,
        326,
        147,
        138,
        26,
        163,
        321,
        334,
        489,
        59,
        122,
        411,
        214,
        405,
        256,
        272,
        467,
        434,
        406,
        185,
        472,
        297,
        105,
        357,
        267,
        425,
        420,
        253,
        295,
        388,
        203,
        29,
        60,
        463,
        395,
        165,
        78,
        101,
        208,
        195,
        210,
        13,
        98,
        371,
        21,
        447,
        70,
        0,
        385,
        386,
        305,
        22,
        369,
        331,
        149,
        499,
        328,
        275,
        218,
        352,
        177,
        394,
        291,
        416,
        288,
        322,
        306,
        443,
        238,
        27,
        96,
        95,
        137,
        30,
        318,
        350,
        332,
        236,
        63,
        119,
        348,
        283,
        392,
        58,
        347,
        473,
        493,
        153,
        196,
        87,
        299,
        243,
        8,
        241,
        270,
        246,
        69,
        364,
        16,
        181,
        284,
        403,
        255,
        461,
        333,
        9,
        117,
        205,
        277,
        312,
        483,
        144,
        469,
        349,
        89,
        32,
        187,
        114,
        35,
        379,
        485,
        401,
        46,
        2,
        3,
        309,
        72,
        162,
        212,
        75,
        244,
        172,
        188,
        178,
        373,
        43,
        157,
        174,
        353,
        477,
        440,
        486,
        84,
        85
    ],
    "Global Optimum": 0,
    "Algorithm": "Genetic algorithm",
    "Parameters": {
        "population": 30,
        "offspring": 30,
        "mutation probability": 0.002,
        "crossover probability": 0.9
    },
    "Fitness": 590923,
    "Solution": [
        99,
        44,
        367,
        222,
        342,
        398,
        40,
        384,
        281,
        399,
        183,
        282,
        207,
        5,
        197,
        276,
        68,
        49,
        51,
        375,
        376,
        289,
        160,
        413,
        457,
        168,
        390,
        82,
        55,
        465,
        271,
        498,
        490,
        64,
        338,
        372,
        345,
        38,
        445,
        341,
        235,
        200,
        383,
        102,
        125,
        86,
        34,
        358,
        441,
        190,
        73,
        329,
        6,
        310,
        113,
        139,
        262,
        140,
        300,
        492,
        438,
        304,
        424,
        266,
        12,
        480,
        303,
        74,
        330,
        39,
        7,
        387,
        167,
        337,
        298,
        223,
        340,
        76,
        202,
        180,
        152,
        193,
        228,
        110,
        143,
        327,
        94,
        211,
        92,
        77,
        179,
        115,
        204,
        377,
        133,
        439,
        11,
        366,
        17,
        418,
        93,
        155,
        396,
        56,
        263,
        496,
        294,
        315,
        251,
        33,
        116,
        484,
        18,
        112,
        261,
        182,
        316,
        437,
        325,
        31,
        201,
        370,
        20,
        111,
        428,
        446,
        171,
        346,
        426,
        456,
        361,
        242,
        198,
        362,
        232,
        37,
        459,
        380,
        268,
        28,
        135,
        1,
        240,
        250,
        100,
        25,
        257,
        269,
        234,
        412,
        393,
        127,
        343,
        249,
        54,
        363,
        80,
        475,
        151,
        103,
        421,
        97,
        52,
        292,
        146,
        391,
        108,
        410,
        302,
        61,
        308,
        159,
        90,
        220,
        91,
        173,
        209,
        344,
        254,
        164,
        474,
        360,
        192,
        442,
        148,
        487,
        452,
        14,
        83,
        206,
        382,
        248,
        481,
        260,
        4,
        479,
        131,
        478,
        221,
        150,
        79,
        109,
        247,
        365,
        454,
        265,
        213,
        323,
        450,
        462,
        423,
        45,
        104,
        106,
        293,
        307,
        225,
        285,
        313,
        290,
        495,
        145,
        273,
        470,
        296,
        488,
        494,
        453,
        231,
        47,
        468,
        66,
        67,
        417,
        107,
        88,
        62,
        279,
        36,
        320,
        130,
        176,
        229,
        19,
        237,
        239,
        464,
        355,
        224,
        400,
        264,
        142,
        15,
        431,
        123,
        24,
        359,
        351,
        432,
        455,
        158,
        53,
        287,
        336,
        414,
        324,
        259,
        170,
        169,
        280,
        319,
        166,
        156,
        141,
        48,
        233,
        430,
        317,
        227,
        374,
        311,
        335,
        381,
        41,
        427,
        252,
        491,
        407,
        436,
        448,
        128,
        189,
        230,
        482,
        10,
        314,
        216,
        186,
        199,
        429,
        415,
        404,
        466,
        378,
        154,
        451,
        121,
        476,
        129,
        57,
        397,
        219,
        184,
        301,
        23,
        449,
        217,
        278,
        339,
        402,
        497,
        368,
        191,
        126,
        389,
        215,
        258,
        419,
        42,
        409,
        435,
        433,
        161,
        136,
        458,
        444,
        118,
        286,
        422,
        71,
        226,
        460,
        274,
        354,
        408,
        132,
        120,
        124,
        134,
        356,
        194,
        471,
        50,
        175,
        245,
        81,
        65,
        326,
        147,
        138,
        26,
        163,
        321,
        334,
        489,
        59,
        122,
        411,
        214,
        405,
        256,
        272,
        467,
        434,
        406,
        185,
        472,
        297,
        105,
        357,
        267,
        425,
        420,
        253,
        295,
        388,
        203,
        29,
        60,
        463,
        395,
        165,
        78,
        101,
        208,
        195,
        210,
        13,
        98,
        371,
        21,
        447,
        70,
        0,
        385,
        386,
        305,
        22,
        369,
        331,
        149,
        499,
        328,
        275,
        218,
        352,
        177,
        394,
        291,
        416,
        288,
        322,
        306,
        443,
        238,
        27,
        96,
        95,
        137,
        30,
        318,
        350,
        332,
        236,
        63,
        119,
        348,
        283,
        392,
        58,
        347,
        473,
        493,
        153,
        196,
        87,
        299,
        243,
        8,
        241,
        270,
        246,
        69,
        364,
        16,
        181,
        284,
        403,
        255,
        461,
        333,
        9,
        117,
        205,
        277,
        312,
        483,
        144,
        469,
        349,
        89,
        32,
        187,
        114,
        35,
        379,
        485,
        401,
        46,
        2,
        3,
        309,
        72,
        162,
        212,
        75,
        244,
        172,
        188,
        178,
        373,
        43,
        157,
        174,
        353,
        477,
        440,
        486,
        84,
        85
    ],
    "Nb of functions evaluations": 400020,
    "Computational time in seconds": 1774.0746901035309,
    "Stopping criterion in evaluations": 400000
}